-10 14 36 72 81 -87 -127 135 -151 152 0 
36 -61 72 81 -87 142 -151 -152 0 
36 52 62 72 81 89 142 -151 0 
36 61 72 81 87 142 151 152 0 
-10 36 52 62 72 81 89 -127 135 142 0 
-10 14 -36 72 81 -87 -127 135 -151 152 0 
-10 -36 62 72 81 89 125 -127 135 0 
-10 62 72 81 89 125 -127 135 142 0 
-10 72 81 89 125 -127 135 142 0 
36 -72 81 -87 109 113 -127 135 -151 -152 0 
-10 81 89 109 113 125 -127 135 142 0 
52 -61 72 -81 -87 -152 0 
-10 89 109 113 125 -127 135 142 0 
-10 14 36 72 81 87 -127 135 -151 -152 0 
-10 -89 -127 135 0 
-10 -127 135 142 -171 0 
-10 109 -127 135 142 -225 0 
-10 109 -127 135 142 0 
-10 109 -127 142 0 
1 2 3 6 7 8 -14 0 
1 2 6 7 11 12 -18 0 
1 2 6 7 -14 16 17 18 0 
1 2 -8 11 12 14 16 17 18 0 
-4 6 7 8 16 17 18 0 
1 2 4 -10 11 12 14 0 
1 6 11 16 -22 0 
-10 11 14 16 19 21 22 24 0 
-7 11 14 16 18 19 21 22 24 0 
6 9 11 14 16 18 19 21 22 24 0 
-4 6 11 16 21 22 0 
1 4 5 -12 16 18 20 21 22 25 0 
1 4 -10 11 14 16 18 21 22 0 
1 2 4 6 7 10 -19 21 22 0 
1 4 6 10 -12 16 18 21 22 0 
11 12 14 -20 21 22 24 0 
1 4 6 9 10 11 12 14 -23 0 
1 4 6 10 11 12 14 -19 21 22 0 
1 4 11 12 14 16 18 19 -23 0 
1 4 6 10 -15 16 18 19 21 22 23 0 
-2 6 8 10 11 12 14 16 18 19 21 22 0 
1 6 11 14 16 18 21 0 
1 3 4 6 8 -19 21 22 23 0 
-2 6 8 10 11 13 14 21 22 23 0 
1 3 4 6 8 10 11 13 14 21 22 23 0 
1 6 11 14 16 21 0 
-2 6 9 10 16 19 21 22 24 0 
1 2 4 6 9 10 16 19 -25 0 
1 4 6 10 -14 16 21 22 0 
-26 0 
6 7 10 12 17 -23 27 0 
4 6 8 10 14 17 18 19 21 22 23 24 27 29 0 
4 6 8 10 12 14 17 18 19 22 23 24 27 29 0 
6 7 8 10 12 17 22 27 0 
12 13 14 17 18 19 -21 0 
-15 21 22 23 27 28 0 
12 13 14 17 18 19 22 23 27 28 0 
12 13 17 18 19 22 23 27 28 0 
6 7 10 12 17 22 27 0 
11 12 13 -20 27 28 0 
11 12 16 17 -23 27 0 
11 12 14 -19 21 22 23 27 0 
11 12 -13 14 16 17 19 21 22 27 0 
11 12 14 16 17 21 22 27 0 
-2 10 0 
3 5 8 10 -16 28 30 0 
10 11 12 14 19 -23 0 
1 3 6 8 10 -17 28 0 
3 8 10 -11 18 19 28 0 
3 7 8 10 -20 27 28 0 
10 14 19 -23 0 
4 5 9 10 -16 23 24 25 0 
2 4 5 -7 11 14 15 16 18 19 24 0 
2 4 5 -8 11 14 15 23 24 25 0 
10 11 14 18 19 -20 27 28 0 
-1 7 8 10 22 23 25 0 
10 11 14 17 18 19 -20 28 0 
5 10 11 14 15 23 25 -28 0 
10 11 14 17 19 -20 0 
7 8 10 17 19 20 -21 27 0 
6 7 8 10 14 17 19 21 22 27 0 
-5 21 22 23 27 28 0 
7 8 10 -12 14 17 19 20 0 
2 7 11 12 17 19 20 -21 0 
1 2 4 11 12 14 -25 0 
-3 11 12 14 27 29 0 
1 2 4 11 12 14 21 23 24 29 0 
2 -9 11 12 14 17 19 20 21 23 0 
7 8 10 11 14 17 19 0 
2 11 12 14 17 19 20 -21 27 0 
8 10 11 12 14 -16 21 22 23 27 28 0 
8 10 11 14 17 19 0 
1 2 3 -15 21 23 28 0 
10 11 14 17 19 0 
-4 6 10 16 17 19 21 23 27 28 0 
1 2 4 16 17 19 -30 0 
1 6 10 16 17 19 21 23 27 28 0 
-4 6 7 10 16 17 19 21 22 23 0 
1 2 4 16 17 19 -25 0 
1 6 10 16 17 19 21 23 -27 0 
10 14 17 19 0 
7 9 10 12 14 -25 27 29 0 
-4 7 10 12 14 22 23 27 0 
2 4 12 14 -21 -25 0 
1 4 7 10 12 14 -25 27 0 
4 7 10 12 14 -25 27 0 
1 6 8 10 11 14 -17 28 0 
1 4 10 14 -17 -21 28 0 
1 10 14 -17 23 28 0 
1 4 10 14 -17 23 25 0 
10 14 19 0 
1 4 9 10 14 -25 28 29 0 
1 4 8 9 10 -11 24 25 28 29 0 
1 4 8 9 10 14 24 27 28 29 0 
1 4 8 9 10 14 24 28 29 0 
1 4 9 10 14 24 28 29 0 
1 3 8 10 -11 -19 23 0 
1 10 14 0 
-7 11 14 16 21 0 
11 13 14 -22 28 29 0 
10 14 0 
1 2 4 -8 11 19 24 28 29 0 
1 4 8 9 10 19 21 24 -27 0 
1 4 8 9 10 19 21 24 28 29 0 
1 4 9 10 11 19 24 28 29 0 
16 18 19 21 23 24 -30 0 
-8 16 19 21 24 28 29 0 
4 9 10 11 19 24 28 29 0 
3 4 8 9 10 18 19 -22 0 
3 4 8 9 10 18 19 -25 0 
10 -28 0 
10 0 
1 4 -22 28 0 
1 4 16 19 -23 0 
1 4 16 19 21 28 0 
-3 11 21 22 28 0 
1 4 11 21 28 0 
1 4 21 28 0 
1 4 21 0 
-2 11 16 28 0 
11 13 -17 28 0 
1 4 11 16 28 0 
1 4 0 
2 7 11 12 14 17 19 22 24 0 
-4 8 -27 0 
-12 18 19 23 24 0 
-4 8 0 
11 12 21 22 -28 0 
6 11 16 -17 19 21 0 
11 13 -24 28 0 
11 -18 21 0 
6 11 16 19 21 0 
11 14 21 24 -27 0 
-1 0 
01 2 3 6 7 8 -14 0 
1 2 6 7 11 12 -18 0 
1 2 6 7 -14 16 17 18 0 
1 2 -8 11 12 14 16 17 18 0 
-4 6 7 8 16 17 18 0 
1 2 4 -10 11 12 14 0 
1 6 11 16 -22 0 
-10 11 14 16 19 21 22 24 0 
-7 11 14 16 18 19 21 22 24 0 
6 9 11 14 16 18 19 21 22 24 0 
-4 6 11 16 21 22 0 
1 4 5 -12 16 18 20 21 22 25 0 
1 4 -10 11 14 16 18 21 22 0 
1 2 4 6 7 10 -19 21 22 0 
1 4 6 10 -12 16 18 21 22 0 
11 12 14 -20 21 22 24 0 
1 4 6 9 10 11 12 14 -23 0 
1 4 6 10 11 12 14 -19 21 22 0 
1 4 11 12 14 16 18 19 -23 0 
1 4 6 10 -15 16 18 19 21 22 23 0 
-2 6 8 10 11 12 14 16 18 19 21 22 0 
1 6 11 14 16 18 21 0 
1 3 4 6 8 -19 21 22 23 0 
-2 6 8 10 11 13 14 21 22 23 0 
1 3 4 6 8 10 11 13 14 21 22 23 0 
1 6 11 14 16 21 0 
-2 6 9 10 16 19 21 22 24 0 
1 2 4 6 9 10 16 19 -25 0 
1 4 6 10 -14 16 21 22 0 
-26 0 
6 7 10 12 17 -23 27 0 
4 6 8 10 14 17 18 19 21 22 23 24 27 29 0 
4 6 8 10 12 14 17 18 19 22 23 24 27 29 0 
6 7 8 10 12 17 22 27 0 
12 13 14 17 18 19 -21 0 
-15 21 22 23 27 28 0 
12 13 14 17 18 19 22 23 27 28 0 
12 13 17 18 19 22 23 27 28 0 
6 7 10 12 17 22 27 0 
11 12 13 -20 27 28 0 
11 12 16 17 -23 27 0 
11 12 14 -19 21 22 23 27 0 
11 12 -13 14 16 17 19 21 22 27 0 
11 12 14 16 17 21 22 27 0 
-2 10 0 
3 5 8 10 -16 28 30 0 
10 11 12 14 19 -23 0 
1 3 6 8 10 -17 28 0 
3 8 10 -11 18 19 28 0 
3 7 8 10 -20 27 28 0 
10 14 19 -23 0 
4 5 9 10 -16 23 24 25 0 
2 4 5 -7 11 14 15 16 18 19 24 0 
2 4 5 -8 11 14 15 23 24 25 0 
10 11 14 18 19 -20 27 28 0 
-1 7 8 10 22 23 25 0 
10 11 14 17 18 19 -20 28 0 
5 10 11 14 15 23 25 -28 0 
10 11 14 17 19 -20 0 
7 8 10 17 19 20 -21 27 0 
6 7 8 10 14 17 19 21 22 27 0 
-5 21 22 23 27 28 0 
7 8 10 -12 14 17 19 20 0 
2 7 11 12 17 19 20 -21 0 
1 2 4 11 12 14 -25 0 
-3 11 12 14 27 29 0 
1 2 4 11 12 14 21 23 24 29 0 
2 -9 11 12 14 17 19 20 21 23 0 
7 8 10 11 14 17 19 0 
2 11 12 14 17 19 20 -21 27 0 
8 10 11 12 14 -16 21 22 23 27 28 0 
8 10 11 14 17 19 0 
1 2 3 -15 21 23 28 0 
10 11 14 17 19 0 
-4 6 10 16 17 19 21 23 27 28 0 
1 2 4 16 17 19 -30 0 
1 6 10 16 17 19 21 23 27 28 0 
-4 6 7 10 16 17 19 21 22 23 0 
1 2 4 16 17 19 -25 0 
1 6 10 16 17 19 21 23 -27 0 
10 14 17 19 0 
7 9 10 12 14 -25 27 29 0 
-4 7 10 12 14 22 23 27 0 
2 4 12 14 -21 -25 0 
1 4 7 10 12 14 -25 27 0 
4 7 10 12 14 -25 27 0 
1 6 8 10 11 14 -17 28 0 
1 4 10 14 -17 -21 28 0 
1 10 14 -17 23 28 0 
1 4 10 14 -17 23 25 0 
10 14 19 0 
1 4 9 10 14 -25 28 29 0 
1 4 8 9 10 -11 24 25 28 29 0 
1 4 8 9 10 14 24 27 28 29 0 
1 4 8 9 10 14 24 28 29 0 
1 4 9 10 14 24 28 29 0 
1 3 8 10 -11 -19 23 0 
1 10 14 0 
-7 11 14 16 21 0 
11 13 14 -22 28 29 0 
10 14 0 
1 2 4 -8 11 19 24 28 29 0 
1 4 8 9 10 19 21 24 -27 0 
1 4 8 9 10 19 21 24 28 29 0 
1 4 9 10 11 19 24 28 29 0 
16 18 19 21 23 24 -30 0 
-8 16 19 21 24 28 29 0 
4 9 10 11 19 24 28 29 0 
3 4 8 9 10 18 19 -22 0 
3 4 8 9 10 18 19 -25 0 
10 -28 0 
10 0 
1 4 -22 28 0 
1 4 16 19 -23 0 
1 4 16 19 21 28 0 
-3 11 21 22 28 0 
1 4 11 21 28 0 
1 4 21 28 0 
1 4 21 0 
-2 11 16 28 0 
11 13 -17 28 0 
1 4 11 16 28 0 
1 4 0 
2 7 11 12 14 17 19 22 24 0 
-4 8 -27 0 
-12 18 19 23 24 0 
-4 8 0 
11 12 21 22 -28 0 
6 11 16 -17 19 21 0 
11 13 -24 28 0 
11 -18 21 0 
6 11 16 19 21 0 
11 14 21 24 -27 0 
-1 0 
01 2 3 6 7 8 -14 0 
1 2 6 7 11 12 -18 0 
1 2 6 7 -14 16 17 18 0 
1 2 -8 11 12 14 16 17 18 0 
-4 6 7 8 16 17 18 0 
1 2 4 -10 11 12 14 0 
1 6 11 16 -22 0 
-10 11 14 16 19 21 22 24 0 
-7 11 14 16 18 19 21 22 24 0 
6 9 11 14 16 18 19 21 22 24 0 
-4 6 11 16 21 22 0 
1 4 5 -12 16 18 20 21 22 25 0 
1 4 -10 11 14 16 18 21 22 0 
1 2 4 6 7 10 -19 21 22 0 
1 4 6 10 -12 16 18 21 22 0 
11 12 14 -20 21 22 24 0 
1 4 6 9 10 11 12 14 -23 0 
1 4 6 10 11 12 14 -19 21 22 0 
1 4 11 12 14 16 18 19 -23 0 
1 4 6 10 -15 16 18 19 21 22 23 0 
-2 6 8 10 11 12 14 16 18 19 21 22 0 
1 6 11 14 16 18 21 0 
1 3 4 6 8 -19 21 22 23 0 
-2 6 8 10 11 13 14 21 22 23 0 
1 3 4 6 8 10 11 13 14 21 22 23 0 
1 6 11 14 16 21 0 
-2 6 9 10 16 19 21 22 24 0 
1 2 4 6 9 10 16 19 -25 0 
1 4 6 10 -14 16 21 22 0 
-26 0 
6 7 10 12 17 -23 27 0 
4 6 8 10 14 17 18 19 21 22 23 24 27 29 0 
4 6 8 10 12 14 17 18 19 22 23 24 27 29 0 
6 7 8 10 12 17 22 27 0 
12 13 14 17 18 19 -21 0 
-15 21 22 23 27 28 0 
12 13 14 17 18 19 22 23 27 28 0 
12 13 17 18 19 22 23 27 28 0 
6 7 10 12 17 22 27 0 
11 12 13 -20 27 28 0 
11 12 16 17 -23 27 0 
11 12 14 -19 21 22 23 27 0 
11 12 -13 14 16 17 19 21 22 27 0 
11 12 14 16 17 21 22 27 0 
-2 10 0 
3 5 8 10 -16 28 30 0 
10 11 12 14 19 -23 0 
1 3 6 8 10 -17 28 0 
3 8 10 -11 18 19 28 0 
3 7 8 10 -20 27 28 0 
10 14 19 -23 0 
4 5 9 10 -16 23 24 25 0 
2 4 5 -7 11 14 15 16 18 19 24 0 
2 4 5 -8 11 14 15 23 24 25 0 
10 11 14 18 19 -20 27 28 0 
-1 7 8 10 22 23 25 0 
10 11 14 17 18 19 -20 28 0 
5 10 11 14 15 23 25 -28 0 
10 11 14 17 19 -20 0 
7 8 10 17 19 20 -21 27 0 
6 7 8 10 14 17 19 21 22 27 0 
-5 21 22 23 27 28 0 
7 8 10 -12 14 17 19 20 0 
2 7 11 12 17 19 20 -21 0 
1 2 4 11 12 14 -25 0 
-3 11 12 14 27 29 0 
1 2 4 11 12 14 21 23 24 29 0 
2 -9 11 12 14 17 19 20 21 23 0 
7 8 10 11 14 17 19 0 
2 11 12 14 17 19 20 -21 27 0 
8 10 11 12 14 -16 21 22 23 27 28 0 
8 10 11 14 17 19 0 
1 2 3 -15 21 23 28 0 
10 11 14 17 19 0 
-4 6 10 16 17 19 21 23 27 28 0 
1 2 4 16 17 19 -30 0 
1 6 10 16 17 19 21 23 27 28 0 
-4 6 7 10 16 17 19 21 22 23 0 
1 2 4 16 17 19 -25 0 
1 6 10 16 17 19 21 23 -27 0 
10 14 17 19 0 
7 9 10 12 14 -25 27 29 0 
-4 7 10 12 14 22 23 27 0 
2 4 12 14 -21 -25 0 
1 4 7 10 12 14 -25 27 0 
4 7 10 12 14 -25 27 0 
1 6 8 10 11 14 -17 28 0 
1 4 10 14 -17 -21 28 0 
1 10 14 -17 23 28 0 
1 4 10 14 -17 23 25 0 
10 14 19 0 
1 4 9 10 14 -25 28 29 0 
1 4 8 9 10 -11 24 25 28 29 0 
1 4 8 9 10 14 24 27 28 29 0 
1 4 8 9 10 14 24 28 29 0 
1 4 9 10 14 24 28 29 0 
1 3 8 10 -11 -19 23 0 
1 10 14 0 
-7 11 14 16 21 0 
11 13 14 -22 28 29 0 
10 14 0 
1 2 4 -8 11 19 24 28 29 0 
1 4 8 9 10 19 21 24 -27 0 
1 4 8 9 10 19 21 24 28 29 0 
1 4 9 10 11 19 24 28 29 0 
16 18 19 21 23 24 -30 0 
-8 16 19 21 24 28 29 0 
4 9 10 11 19 24 28 29 0 
3 4 8 9 10 18 19 -22 0 
3 4 8 9 10 18 19 -25 0 
10 -28 0 
10 0 
1 4 -22 28 0 
1 4 16 19 -23 0 
1 4 16 19 21 28 0 
-3 11 21 22 28 0 
1 4 11 21 28 0 
1 4 21 28 0 
1 4 21 0 
-2 11 16 28 0 
11 13 -17 28 0 
1 4 11 16 28 0 
1 4 0 
2 7 11 12 14 17 19 22 24 0 
-4 8 -27 0 
-12 18 19 23 24 0 
-4 8 0 
11 12 21 22 -28 0 
6 11 16 -17 19 21 0 
11 13 -24 28 0 
11 -18 21 0 
6 11 16 19 21 0 
11 14 21 24 -27 0 
-1 0 
01 2 3 6 7 8 -14 0 
1 2 6 7 11 12 -18 0 
1 2 6 7 -14 16 17 18 0 
1 2 -8 11 12 14 16 17 18 0 
-4 6 7 8 16 17 18 0 
1 2 4 -10 11 12 14 0 
1 6 11 16 -22 0 
-10 11 14 16 19 21 22 24 0 
-7 11 14 16 18 19 21 22 24 0 
6 9 11 14 16 18 19 21 22 24 0 
-4 6 11 16 21 22 0 
1 4 5 -12 16 18 20 21 22 25 0 
1 4 -10 11 14 16 18 21 22 0 
1 2 4 6 7 10 -19 21 22 0 
1 4 6 10 -12 16 18 21 22 0 
11 12 14 -20 21 22 24 0 
1 4 6 9 10 11 12 14 -23 0 
1 4 6 10 11 12 14 -19 21 22 0 
1 4 11 12 14 16 18 19 -23 0 
1 4 6 10 -15 16 18 19 21 22 23 0 
-2 6 8 10 11 12 14 16 18 19 21 22 0 
1 6 11 14 16 18 21 0 
1 3 4 6 8 -19 21 22 23 0 
-2 6 8 10 11 13 14 21 22 23 0 
1 3 4 6 8 10 11 13 14 21 22 23 0 
1 6 11 14 16 21 0 
-2 6 9 10 16 19 21 22 24 0 
1 2 4 6 9 10 16 19 -25 0 
1 4 6 10 -14 16 21 22 0 
-26 0 
6 7 10 12 17 -23 27 0 
-1 -16 0 
-1 -21 0 
-1 -11 0 
-2 6 8 10 23 0 
12 13 -20 22 23 0 
-2 6 10 0 
-1 -26 0 
1 2 4 11 12 14 -25 0 
1 2 4 -13 26 27 29 0 
1 6 8 10 11 14 -19 26 0 
1 2 3 4 5 0 
1 4 6 8 10 -13 16 19 26 0 
1 6 8 10 -13 16 19 26 0 
1 2 4 -7 11 13 14 16 19 22 23 0 
11 12 13 14 16 18 19 22 23 26 28 29 0 
-3 11 13 14 16 19 22 23 26 29 0 
1 4 6 8 10 11 14 16 22 23 26 0 
1 6 8 10 11 14 16 22 23 26 0 
1 2 3 11 13 14 -19 26 28 0 
-5 11 13 14 16 18 19 0 
1 6 10 11 14 16 22 23 26 0 
1 6 10 -12 -14 16 0 
1 2 6 -14 -18 26 0 
1 4 6 9 10 -17 26 29 0 
1 6 10 11 16 22 23 26 0 
1 10 -21 23 0 
1 6 11 14 16 21 0 
-9 21 23 25 26 28 30 0 
-5 6 8 10 23 26 28 0 
-2 6 10 0 
-1 -21 0 
-2 -22 0 
-1 -11 0 
-1 -16 0 
01 2 3 6 7 8 -14 0 
1 2 6 7 11 12 -18 0 
1 2 6 7 -14 16 17 18 0 
1 2 -8 11 12 14 16 17 18 0 
-4 6 7 8 16 17 18 0 
1 2 4 -10 11 12 14 0 
1 6 11 16 -22 0 
-10 11 14 16 19 21 22 24 0 
-7 11 14 16 18 19 21 22 24 0 
6 9 11 14 16 18 19 21 22 24 0 
-4 6 11 16 21 22 0 
1 4 5 -12 16 18 20 21 22 25 0 
1 4 -10 11 14 16 18 21 22 0 
1 2 4 6 7 10 -19 21 22 0 
1 4 6 10 -12 16 18 21 22 0 
11 12 14 -20 21 22 24 0 
1 4 6 9 10 11 12 14 -23 0 
1 4 6 10 11 12 14 -19 21 22 0 
1 4 11 12 14 16 18 19 -23 0 
1 4 6 10 -15 16 18 19 21 22 23 0 
-2 6 8 10 11 12 14 16 18 19 21 22 0 
1 6 11 14 16 18 21 0 
1 3 4 6 8 -19 21 22 23 0 
-2 6 8 10 11 13 14 21 22 23 0 
1 3 4 6 8 10 11 13 14 21 22 23 0 
1 6 11 14 16 21 0 
-2 6 9 10 16 19 21 22 24 0 
1 2 4 6 9 10 16 19 -25 0 
1 4 6 10 -14 16 21 22 0 
-26 0 
6 7 10 12 17 -23 27 0 
-1 -16 0 
-1 -21 0 
-1 -11 0 
-2 6 8 10 23 0 
12 13 -20 22 23 0 
-2 6 10 0 
-1 -26 0 
1 2 4 11 12 14 -25 0 
1 2 4 -13 26 27 29 0 
1 6 8 10 11 14 -19 26 0 
1 4 6 8 10 -13 16 19 26 0 
1 6 8 10 -13 16 19 26 0 
1 2 4 -7 11 13 14 16 19 22 23 0 
1 2 4 6 7 11 -18 26 29 0 
-5 11 13 14 16 18 19 0 
-12 16 18 19 26 28 29 0 
1 4 6 8 10 11 14 16 23 26 0 
1 6 8 10 11 14 16 23 26 0 
1 2 3 11 13 14 -19 26 28 0 
1 6 10 11 14 16 23 26 0 
1 4 6 9 10 -17 26 29 0 
1 2 4 6 11 12 -18 26 29 0 
1 2 4 6 11 12 16 17 19 23 26 29 0 
10 -21 23 0 
1 4 6 10 11 16 18 21 0 
-3 6 9 10 12 13 -20 0 
-1 -26 0 
-7 12 13 16 18 19 23 0 
-3 6 10 11 12 13 16 18 19 0 
-7 11 12 13 16 18 19 0 
6 7 10 11 12 13 -20 0 
-4 -14 0 
-4 -24 0 
-4 -29 0 
-16 22 25 27 30 0 
-4 -19 0 
-4 -9 0 
6 11 12 -23 26 0 
6 -15 21 23 26 0 
-10 21 23 26 28 0 
-10 -30 0 
6 11 12 -23 26 0 
-13 -23 0 
-20 -30 0 
-18 -23 0 
-8 -23 0 
6 16 -29 0 
-5 -30 0 
6 -23 -29 0 
-3 -23 0 
6 -7 -23 26 0 
6 -23 26 0 
6 -23 0 
-7 0 
-15 -30 0 
-14 0 
01 2 3 6 7 8 -14 0 
1 2 6 7 11 12 -18 0 
1 2 6 7 -14 16 17 18 0 
1 2 -8 11 12 14 16 17 18 0 
-4 6 7 8 16 17 18 0 
1 2 4 -10 11 12 14 0 
1 6 11 16 -22 0 
-10 11 14 16 19 21 22 24 0 
-7 11 14 16 18 19 21 22 24 0 
6 9 11 14 16 18 19 21 22 24 0 
-4 6 11 16 21 22 0 
1 4 5 -12 16 18 20 21 22 25 0 
1 4 -10 11 14 16 18 21 22 0 
1 2 4 6 7 10 -19 21 22 0 
1 4 6 10 -12 16 18 21 22 0 
11 12 14 -20 21 22 24 0 
1 4 6 9 10 11 12 14 -23 0 
1 4 6 10 11 12 14 -19 21 22 0 
1 4 11 12 14 16 18 19 -23 0 
1 4 6 10 -15 16 18 19 21 22 23 0 
-2 6 8 10 11 12 14 16 18 19 21 22 0 
1 6 11 14 16 18 21 0 
1 3 4 6 8 -19 21 22 23 0 
-2 6 8 10 11 13 14 21 22 23 0 
1 3 4 6 8 10 11 13 14 21 22 23 0 
1 6 11 14 16 21 0 
-2 6 9 10 16 19 21 22 24 0 
1 2 4 6 9 10 16 19 -25 0 
1 4 6 10 -14 16 21 22 0 
-26 0 
6 7 10 12 17 -23 27 0 
-2 6 8 10 11 16 21 23 0 
11 12 13 -20 21 22 23 0 
-2 6 10 0 
-1 2 0 
01 2 3 6 7 8 -14 0 
1 2 6 7 11 12 -18 0 
1 2 6 7 -14 16 17 18 0 
1 2 -8 11 12 14 16 17 18 0 
-4 6 7 8 16 17 18 0 
1 2 4 -10 11 12 14 0 
1 6 11 16 -22 0 
-10 11 14 16 19 21 22 24 0 
-7 11 14 16 18 19 21 22 24 0 
6 9 11 14 16 18 19 21 22 24 0 
-4 6 11 16 21 22 0 
1 4 5 -12 16 18 20 21 22 25 0 
1 4 -10 11 14 16 18 21 22 0 
1 2 4 6 7 10 -19 21 22 0 
1 4 6 10 -12 16 18 21 22 0 
11 12 14 -20 21 22 24 0 
1 4 6 9 10 11 12 14 -23 0 
1 4 6 10 11 12 14 -19 21 22 0 
1 4 11 12 14 16 18 19 -23 0 
1 4 6 10 -15 16 18 19 21 22 23 0 
-2 6 8 10 11 12 14 16 18 19 21 22 0 
1 6 11 14 16 18 21 0 
1 3 4 6 8 -19 21 22 23 0 
-2 6 8 10 11 13 14 21 22 23 0 
1 3 4 6 8 10 11 13 14 21 22 23 0 
1 6 11 14 16 21 0 
-2 6 9 10 16 19 21 22 24 0 
1 2 4 6 9 10 16 19 -25 0 
1 4 6 10 -14 16 21 22 0 
-26 0 
6 7 10 12 17 -23 27 0 
20 0 
01 -6 -8 -9 0 
1 -9 -10 0 
1 -6 -7 -8 -19 0 
1 -6 -7 -19 0 
1 -6 -8 -17 -19 0 
1 -10 0 
1 -6 -8 0 
6 0 
4 0 
1 -5 0 
01 2 3 6 7 8 -14 0 
1 2 6 7 11 12 -18 0 
1 2 6 7 -14 16 17 18 0 
1 2 -8 11 12 14 16 17 18 0 
-4 6 7 8 16 17 18 0 
1 2 4 -10 11 12 14 0 
1 6 11 16 -22 0 
-10 11 14 16 19 21 22 24 0 
-7 11 14 16 18 19 21 22 24 0 
6 9 11 14 16 18 19 21 22 24 0 
-4 6 11 16 21 22 0 
1 4 5 -12 16 18 20 21 22 25 0 
1 4 -10 11 14 16 18 21 22 0 
1 2 4 6 7 10 -19 21 22 0 
1 4 6 10 -12 16 18 21 22 0 
11 12 14 -20 21 22 24 0 
1 4 6 9 10 11 12 14 -23 0 
1 4 6 10 11 12 14 -19 21 22 0 
1 4 11 12 14 16 18 19 -23 0 
1 4 6 10 -15 16 18 19 21 22 23 0 
-2 6 8 10 11 12 14 16 18 19 21 22 0 
1 6 11 14 16 18 21 0 
1 3 4 6 8 -19 21 22 23 0 
-2 6 8 10 11 13 14 21 22 23 0 
1 3 4 6 8 10 11 13 14 21 22 23 0 
1 6 11 14 16 21 0 
-2 6 9 10 16 19 21 22 24 0 
1 2 4 6 9 10 16 19 -25 0 
1 4 6 10 -14 16 21 22 0 
-26 0 
6 7 10 12 17 -23 27 0 
-3 -23 0 
-1 -16 0 
-3 -13 0 
-1 -11 0 
14 18 19 -25 0 
-1 -21 0 
6 8 10 -17 25 0 
6 8 10 14 18 19 0 
-3 -8 0 
-3 -18 0 
6 10 -14 25 0 
6 10 25 0 
-7 15 20 0 
6 10 0 
-1 -6 0 
-12 0 
0